50
    1   345   345
    2   299   299
    3   693   693
    4   796   796
    5   467   467
    6   429   429
    7   100   100
    8    65    65
    9   141   141
   10   623   623
   11   291   291
   12   702   702
   13   670   670
   14   999   999
   15   781   781
   16   401   401
   17    46    46
   18   196   196
   19    59    59
   20   904   904
   21   357   357
   22   204   204
   23   100   100
   24   720   720
   25   493   493
   26   408   408
   27   661   661
   28   327   327
   29   206   206
   30   148   148
   31   254   254
   32   617   617
   33   310   310
   34   611   611
   35   425   425
   36    15    15
   37   258   258
   38   320   320
   39   407   407
   40   679   679
   41   614   614
   42   791   791
   43   313   313
   44   604   604
   45   901   901
   46   801   801
   47   496   496
   48   893   893
   49   350   350
   50   246   246
15024
